data;


param d:= 100;
param r:=5;
param p:=0.840000;
param M:=1000;
param U:=
         1         1        1.086530e-01
         2         1       -7.663772e-01
         3         1       -3.245897e-01
         4         1        9.622598e-01
         5         1        2.124242e+00
         6         1        1.892128e-03
         7         1        9.659942e-01
         8         1       -5.165693e-01
         9         1        1.120399e+00
        10         1       -1.794726e-01
        11         1       -1.705017e+00
        12         1       -1.921292e-01
        13         1       -4.823614e-01
        14         1       -1.065689e+00
        15         1       -1.631967e+00
        16         1        1.501006e+00
        17         1        9.688393e-01
        18         1       -2.163335e-01
        19         1       -1.310027e+00
        20         1        7.236687e-01
        21         1       -3.693956e-01
        22         1        5.964693e-01
        23         1       -1.488954e+00
        24         1        5.481686e-01
        25         1        1.332315e+00
        26         1       -3.782222e-01
        27         1       -1.039534e+00
        28         1       -8.200412e-01
        29         1       -4.646262e-01
        30         1       -3.523425e-01
        31         1       -3.236565e-01
        32         1       -9.585822e-01
        33         1       -4.634905e-01
        34         1       -3.185335e-01
        35         1       -2.437090e-01
        36         1        7.849255e-01
        37         1       -8.741557e-01
        38         1       -6.314295e-01
        39         1       -1.532369e+00
        40         1        3.945668e-01
        41         1        1.385501e+00
        42         1       -1.493077e+00
        43         1        1.495517e+00
        44         1        9.064592e-01
        45         1       -2.673663e-02
        46         1       -6.185249e-01
        47         1        3.005355e+00
        48         1       -6.727141e-01
        49         1       -1.353814e+00
        50         1       -2.440971e+00
        51         1        6.646699e-01
        52         1        1.185583e+00
        53         1       -6.947703e-02
        54         1        2.997697e-01
        55         1        3.392139e-01
        56         1        1.270767e+00
        57         1        9.703081e-01
        58         1        9.565332e-01
        59         1        8.231116e-01
        60         1       -1.291224e+00
        61         1       -2.072930e+00
        62         1        2.256030e-01
        63         1       -1.523148e+00
        64         1       -2.096449e+00
        65         1       -1.415431e+00
        66         1        7.726946e-01
        67         1        3.037821e-02
        68         1        1.271636e-01
        69         1       -9.144151e-01
        70         1        6.896330e-01
        71         1       -6.882479e-02
        72         1       -5.496933e-01
        73         1       -4.219855e-01
        74         1       -1.391040e+00
        75         1        8.689800e-01
        76         1       -4.987175e-01
        77         1        6.501728e-01
        78         1        6.135883e-01
        79         1        5.346774e-02
        80         1        1.461854e+00
        81         1       -1.226962e+00
        82         1        9.526132e-01
        83         1        1.324193e+00
        84         1       -8.759060e-02
        85         1       -3.933045e-01
        86         1       -3.727870e-01
        87         1        9.360146e-02
        88         1        1.157326e+00
        89         1       -1.563030e-01
        90         1        1.152438e+00
        91         1       -1.975958e+00
        92         1       -5.797598e-01
        93         1        2.615503e-01
        94         1        6.268025e-01
        95         1       -1.066749e-01
        96         1       -1.128101e+00
        97         1       -6.019010e-01
        98         1       -5.560726e-01
        99         1       -1.630928e-02
       100         1        3.075832e-01
         1         2       -4.998413e-01
         2         2        9.107874e-01
         3         2        1.033884e+00
         4         2        1.194682e+00
         5         2       -6.281528e-01
         6         2       -6.439598e-01
         7         2        7.460220e-01
         8         2        2.601356e-02
         9         2        6.148308e-01
        10         2        1.295259e+00
        11         2       -2.917397e-01
        12         2       -3.954020e-01
        13         2        5.040168e-01
        14         2       -3.905253e-01
        15         2       -4.353662e-01
        16         2       -5.827344e-01
        17         2       -7.161303e-01
        18         2       -1.724206e-01
        19         2       -8.175170e-01
        20         2        6.560907e-01
        21         2       -1.307369e+00
        22         2       -1.833147e-01
        23         2        1.012991e+00
        24         2        2.137861e-01
        25         2        3.470868e-01
        26         2        1.456930e-01
        27         2        1.577358e-01
        28         2        4.489088e-01
        29         2        4.494703e-01
        30         2       -1.715545e-01
        31         2        4.663478e-01
        32         2       -2.144253e+00
        33         2        1.261465e-01
        34         2       -3.933069e-01
        35         2       -6.724845e-01
        36         2       -7.397155e-01
        37         2       -7.872566e-02
        38         2        2.340055e+00
        39         2       -3.594336e-01
        40         2       -4.681261e-01
        41         2        1.058943e+00
        42         2       -3.677428e-01
        43         2        3.500002e-02
        44         2        1.412712e+00
        45         2       -5.312858e-01
        46         2       -8.026738e-01
        47         2        5.795723e-01
        48         2       -1.284762e+00
        49         2       -1.126002e+00
        50         2       -9.207534e-01
        51         2        1.790078e-01
        52         2        1.941067e+00
        53         2        1.033168e+00
        54         2       -1.276387e+00
        55         2        1.295947e+00
        56         2        1.006981e+00
        57         2        7.007443e-01
        58         2        2.324101e+00
        59         2        1.987440e+00
        60         2        1.843169e+00
        61         2        3.481464e-01
        62         2       -2.190815e-01
        63         2        5.985155e-02
        64         2        9.426614e-01
        65         2       -1.968503e-02
        66         2       -1.427739e+00
        67         2       -8.264005e-02
        68         2        1.955134e+00
        69         2        2.381154e+00
        70         2       -1.088889e+00
        71         2        5.649424e-01
        72         2       -2.791437e-02
        73         2        6.008933e-01
        74         2       -1.827433e+00
        75         2        1.336191e+00
        76         2       -2.227791e-01
        77         2       -2.905722e-01
        78         2        1.143845e+00
        79         2       -2.452819e+00
        80         2       -2.908895e-01
        81         2       -7.211845e-01
        82         2        7.772771e-01
        83         2        9.008192e-01
        84         2       -8.365339e-01
        85         2        5.137510e-02
        86         2       -9.220914e-02
        87         2       -1.681694e-02
        88         2       -1.241064e-01
        89         2        3.936153e-01
        90         2       -6.619669e-01
        91         2        3.863479e-01
        92         2        6.260627e-01
        93         2       -1.186683e+00
        94         2       -1.027911e+00
        95         2        1.559781e+00
        96         2       -1.535315e+00
        97         2        1.643417e+00
        98         2       -3.409077e-01
        99         2        1.078209e+00
       100         2       -1.136890e+00
         1         3        1.023081e-01
         2         3        8.833708e-01
         3         3       -2.307618e-01
         4         3        5.490291e-01
         5         3        7.588797e-01
         6         3       -1.309155e+00
         7         3        5.332480e-01
         8         3       -8.998210e-01
         9         3       -2.852453e-01
        10         3       -1.143312e+00
        11         3        9.363600e-01
        12         3        4.407406e-01
        13         3       -1.970578e+00
        14         3        1.755293e+00
        15         3       -1.612901e+00
        16         3        1.110752e+00
        17         3       -8.612961e-01
        18         3       -1.758628e+00
        19         3       -5.955879e-02
        20         3       -8.783236e-02
        21         3        1.883080e-01
        22         3        9.908136e-01
        23         3        1.586250e-01
        24         3       -1.416250e+00
        25         3        1.745342e-01
        26         3        2.639026e-01
        27         3        7.597099e-01
        28         3       -6.266457e-01
        29         3       -6.764527e-01
        30         3       -1.004624e+00
        31         3       -9.369900e-01
        32         3        6.213991e-01
        33         3       -4.234143e-01
        34         3       -3.398068e-01
        35         3       -1.249825e+00
        36         3        6.131041e-01
        37         3        5.345453e-01
        38         3       -7.671862e-01
        39         3        9.387480e-01
        40         3        2.574514e-01
        41         3        8.001420e-01
        42         3       -3.316471e-01
        43         3        5.129694e-01
        44         3       -6.426313e-01
        45         3        4.919061e-01
        46         3       -2.350794e+00
        47         3        9.773670e-01
        48         3        4.149823e-01
        49         3       -7.679107e-01
        50         3        1.303674e+00
        51         3        1.154864e+00
        52         3        7.161817e-01
        53         3       -1.094360e+00
        54         3       -4.952227e-01
        55         3       -4.317777e-01
        56         3       -1.330927e+00
        57         3       -2.426671e-01
        58         3       -1.791031e+00
        59         3       -5.744197e-01
        60         3       -6.990161e-01
        61         3       -4.559219e-01
        62         3        1.586315e+00
        63         3       -3.986685e-04
        64         3        5.300329e-02
        65         3       -1.366057e+00
        66         3       -1.829631e+00
        67         3        1.339341e-01
        68         3        6.526996e-01
        69         3       -1.035311e-01
        70         3       -1.018135e+00
        71         3        9.879653e-01
        72         3       -9.380558e-01
        73         3       -1.838769e-01
        74         3        1.634037e+00
        75         3        1.267429e+00
        76         3        2.430235e+00
        77         3       -7.784455e-01
        78         3        1.082492e+00
        79         3       -8.892018e-01
        80         3       -8.481819e-01
        81         3       -3.477145e-01
        82         3       -9.781667e-01
        83         3        9.468285e-01
        84         3       -4.468966e-01
        85         3        5.469575e-02
        86         3       -1.083351e+00
        87         3       -9.287362e-01
        88         3       -6.349863e-01
        89         3        4.183519e-01
        90         3        3.490489e-01
        91         3       -7.332472e-01
        92         3        9.160636e-02
        93         3       -9.317798e-02
        94         3       -5.045409e-01
        95         3       -6.057917e-01
        96         3       -1.004312e-02
        97         3        1.515762e+00
        98         3        4.595092e-01
        99         3       -2.298377e+00
       100         3       -6.566033e-01
         1         4       -2.802552e-02
         2         4        8.533903e-01
         3         4       -1.767706e+00
         4         4       -1.410475e+00
         5         4        6.608541e-02
         6         4        6.088906e-01
         7         4        1.072170e+00
         8         4       -3.008702e-01
         9         4       -2.711482e-01
        10         4        6.365865e-01
        11         4       -2.951960e-01
        12         4       -3.635324e-01
        13         4        4.346366e-01
        14         4       -1.542175e+00
        15         4       -2.533282e+00
        16         4       -2.868824e-02
        17         4       -5.538201e-02
        18         4        2.788389e-01
        19         4       -5.015434e-01
        20         4        8.046162e-01
        21         4       -4.668452e-01
        22         4        2.233956e-01
        23         4       -4.777031e-01
        24         4        7.912424e-01
        25         4       -3.201324e-01
        26         4        2.529948e+00
        27         4        2.712705e-01
        28         4       -2.569943e-01
        29         4       -1.958447e+00
        30         4       -7.804771e-01
        31         4        2.773370e-01
        32         4       -1.542443e+00
        33         4        1.290082e+00
        34         4        5.106450e-01
        35         4       -5.646805e-01
        36         4        1.209926e+00
        37         4        5.790106e-01
        38         4        5.779106e-01
        39         4       -4.960672e-01
        40         4       -9.566054e-01
        41         4        2.247661e+00
        42         4        1.863602e+00
        43         4       -1.580934e+00
        44         4       -9.393925e-01
        45         4       -5.259316e-01
        46         4        6.601240e-01
        47         4       -1.438607e+00
        48         4       -1.876618e+00
        49         4       -1.299828e+00
        50         4        2.927013e+00
        51         4        4.983841e-01
        52         4       -1.043386e+00
        53         4        5.104803e-01
        54         4       -7.487217e-01
        55         4        2.402742e+00
        56         4        1.838558e+00
        57         4       -1.076342e+00
        58         4        6.547355e-01
        59         4        6.910338e-01
        60         4        5.111994e-01
        61         4        8.826298e-01
        62         4        5.086891e-01
        63         4       -6.934855e-03
        64         4       -1.205202e-01
        65         4        3.656953e-01
        66         4        8.812636e-01
        67         4       -3.925464e-01
        68         4       -1.596247e-01
        69         4        5.303098e-02
        70         4        3.543403e-02
        71         4       -3.712329e-01
        72         4       -3.090989e-01
        73         4       -3.563601e-01
        74         4       -1.399522e+00
        75         4        5.191241e-01
        76         4        4.119610e-01
        77         4        1.295141e+00
        78         4       -2.516187e-01
        79         4       -1.519615e+00
        80         4        3.261203e-01
        81         4       -3.294258e-01
        82         4       -6.815517e-01
        83         4       -1.361122e+00
        84         4        6.234372e-02
        85         4        5.479778e-01
        86         4       -8.601154e-01
        87         4       -6.602764e-02
        88         4        1.069598e+00
        89         4       -4.666965e-01
        90         4        2.145906e+00
        91         4        1.094387e+00
        92         4        1.253453e+00
        93         4        5.694270e-01
        94         4       -4.657026e-01
        95         4        6.772585e-01
        96         4       -5.971884e-01
        97         4       -2.655974e-02
        98         4        2.823841e-02
        99         4        2.138050e+00
       100         4        8.571788e-01
         1         5        8.821045e-01
         2         5        1.539048e-01
         3         5        9.586315e-01
         4         5        4.093932e-01
         5         5        9.107036e-02
         6         5       -1.608410e+00
         7         5       -3.258601e-01
         8         5        7.471180e-01
         9         5       -1.559060e+00
        10         5        2.902052e-02
        11         5       -1.328404e-01
        12         5        5.605840e-01
        13         5       -8.375684e-01
        14         5        1.191153e+00
        15         5       -1.486497e+00
        16         5       -3.850930e-01
        17         5        3.024251e-02
        18         5        1.559594e-01
        19         5        1.035651e+00
        20         5       -3.504128e-01
        21         5       -3.702296e-01
        22         5        1.445141e-01
        23         5        2.124556e+00
        24         5       -5.178861e-01
        25         5       -1.218395e-01
        26         5        3.690261e-02
        27         5       -5.684721e-01
        28         5        6.679493e-01
        29         5        1.040370e+00
        30         5        1.639476e-01
        31         5        1.146706e+00
        32         5        2.055347e+00
        33         5       -3.809536e-01
        34         5        8.376124e-01
        35         5       -1.049040e+00
        36         5        1.530392e-01
        37         5        1.400066e+00
        38         5        1.976037e-02
        39         5        2.258819e+00
        40         5       -7.178133e-01
        41         5       -1.271874e+00
        42         5        4.174911e-01
        43         5        1.586644e+00
        44         5        3.664496e-02
        45         5       -1.030554e+00
        46         5        1.245674e-01
        47         5        8.288605e-01
        48         5        4.481927e-03
        49         5        1.322443e+00
        50         5        9.676579e-01
        51         5       -7.911464e-01
        52         5        1.268996e+00
        53         5        9.725499e-01
        54         5        2.656509e-01
        55         5        6.419805e-01
        56         5       -6.964860e-01
        57         5        2.706838e+00
        58         5        3.441268e-01
        59         5       -1.068596e+00
        60         5        1.879362e+00
        61         5        1.109661e+00
        62         5        3.914937e-01
        63         5       -2.476679e-02
        64         5        2.906780e-01
        65         5       -1.032596e+00
        66         5        1.087962e+00
        67         5        1.937539e-01
        68         5       -6.986265e-01
        69         5        1.372276e-01
        70         5        1.475046e+00
        71         5       -5.946067e-01
        72         5        8.661388e-01
        73         5        1.065863e+00
        74         5        3.055015e-01
        75         5        1.593340e+00
        76         5       -2.441440e-01
        77         5        2.251641e+00
        78         5        4.049843e-02
        79         5        1.131106e+00
        80         5       -1.250507e+00
        81         5       -8.821693e-01
        82         5       -3.448147e-01
        83         5        1.150285e-01
        84         5        1.137348e+00
        85         5       -1.131101e+00
        86         5       -1.744759e+00
        87         5       -3.566869e-01
        88         5       -1.163354e+00
        89         5        9.826116e-01
        90         5       -1.070918e-01
        91         5       -1.067939e-01
        92         5       -1.416088e+00
        93         5       -3.953039e-01
        94         5       -7.513476e-01
        95         5       -9.218860e-01
        96         5        1.280699e+00
        97         5        7.649498e-01
        98         5       -1.093877e-01
        99         5        9.504777e-01
       100         5        1.481027e+00
;

param theta:=
    1        1.090798e+00
    2       -5.166965e-01
    3       -3.919407e-01
    4        9.660285e-01
    5       -2.971522e-01
;
param X_true:=
    1        4.749327e-02
    2       -8.741260e-01
    3       -2.790335e+00
    4       -1.267055e+00
    5        2.381026e+00
    6        1.914055e+00
    7        1.591813e+00
    8       -7.368943e-01
    9        1.217588e+00
   10        1.894232e-01
   11       -2.321779e+00
   12       -6.957768e-01
   13        6.545239e-01
   14       -3.492378e+00
   15       -2.928539e+00
   16        1.589760e+00
   17        1.701919e+00
   18        7.654133e-01
   19       -1.775474e+00
   20        1.366210e+00
   21       -1.421998e-01
   22        5.298691e-01
   23       -3.302520e+00
   24        1.960818e+00
   25        9.324879e-01
   26        1.841759e+00
   27       -1.082207e+00
   28       -1.327587e+00
   29       -2.674988e+00
   30       -7.046204e-01
   31       -2.995905e-01
   32       -2.282038e+00
   33        9.546562e-01
   34        2.333480e-01
   35        3.377173e-01
   36        2.121450e+00
   37       -9.790519e-01
   38       -1.044762e+00
   39       -3.004149e+00
   40       -1.394422e-01
   41        3.199786e+00
   42        3.675868e-01
   43       -5.865332e-01
   44       -4.076752e-01
   45       -1.492822e-01
   46        1.262108e+00
   47        9.596693e-01
   48       -2.046810e+00
   49       -2.242599e+00
   50       -1.577822e-01
   51        8.964337e-01
   52       -1.375438e+00
   53        2.344766e-02
   54        3.783657e-01
   55        1.999985e+00
   56        3.370552e+00
   57       -1.052671e+00
   58        1.074742e+00
   59        1.081177e+00
   60       -2.151474e+00
   61       -1.739432e+00
   62        1.126196e-01
   63       -1.691555e+00
   64       -2.997447e+00
   65       -3.382539e-01
   66        2.825704e+00
   67       -4.134433e-01
   68       -1.073924e+00
   69       -2.176746e+00
   70        1.309841e+00
   71       -9.361344e-01
   72       -7.734921e-01
   73       -1.359689e+00
   74       -2.656319e+00
   75       -2.112570e-01
   76       -9.108849e-01
   77        1.746512e+00
   78       -6.010979e-01
   79       -1.299022e-01
   80        2.763958e+00
   81       -8.855467e-01
   82        4.649395e-01
   83       -7.411869e-01
   84        2.341079e-01
   85        3.884728e-01
   86       -2.468185e-01
   87        5.170047e-01
   88        2.954366e+00
   89       -1.280671e+00
   90        3.567135e+00
   91       -9.786628e-01
   92        6.398755e-01
   93        1.602522e+00
   94        1.185966e+00
   95        2.433317e-01
   96       -1.390766e+00
   97       -2.352753e+00
   98       -5.507334e-01
   99        2.108911e+00
  100        1.568256e+00
;
param X:=
    1        4.749327e-02
    2       -1.010975e+00
    3        4.734442e-01
    4        9.445732e-01
    5        7.595667e-01
    6       -3.965651e-01
    7       -5.997323e-01
    8        2.670631e+00
    9        3.667900e-01
   10       -7.366671e-01
   11        6.704327e-01
   12       -6.957768e-01
   13        6.984363e-01
   14       -9.507195e-01
   15        4.813613e-02
   16       -9.447841e-01
   17        6.500520e-01
   18        5.275082e-01
   19        4.650067e-01
   20       -8.785110e-01
   21        4.212119e-01
   22        5.298691e-01
   23        1.448113e+00
   24        3.314129e-01
   25        7.801215e-01
   26        4.937659e-01
   27        6.160867e-01
   28        1.048442e-01
   29        2.294059e+00
   30        1.273194e+00
   31        6.125553e-01
   32       -2.282038e+00
   33        9.623027e-01
   34        7.757292e-02
   35       -1.175982e+00
   36        2.121450e+00
   37        1.617871e+00
   38       -1.044762e+00
   39        1.212110e+00
   40       -4.830953e-01
   41       -2.606438e+00
   42       -1.890218e+00
   43       -5.865332e-01
   44       -7.427261e-01
   45       -1.492822e-01
   46       -1.616901e-01
   47        1.131598e-01
   48       -9.204806e-01
   49       -1.963015e-01
   50       -3.034352e-01
   51       -4.564574e-02
   52        4.979279e-01
   53       -1.099859e+00
   54        3.363222e-01
   55        1.494442e+00
   56       -3.827767e-02
   57       -1.388990e+00
   58       -4.539929e-01
   59       -7.069378e-01
   60        2.328089e-01
   61        1.540694e+00
   62       -2.003686e+00
   63       -1.002392e+00
   64       -2.103963e-01
   65        2.754709e-01
   66       -1.461047e+00
   67       -4.700268e-01
   68       -1.073924e+00
   69       -2.821134e+00
   70        2.664878e-01
   71        5.937278e-01
   72        6.194931e-02
   73        8.925779e-01
   74       -2.656319e+00
   75       -2.112570e-01
   76       -2.073146e+00
   77        1.746512e+00
   78       -6.752479e-01
   79        7.477428e-01
   80        2.763958e+00
   81       -1.097879e+00
   82        4.649395e-01
   83        1.232768e+00
   84        3.014423e-02
   85       -4.451476e-01
   86        3.842372e-01
   87        2.178145e-02
   88        2.792066e+00
   89       -3.310791e-01
   90       -1.086883e+00
   91       -7.956216e-01
   92        8.553490e-01
   93        2.788363e-01
   94       -6.904403e-02
   95        1.331681e+00
   96        6.311471e-01
   97       -8.808530e-01
   98        8.738539e-01
   99        2.108911e+00
  100       -1.102117e-01
;
param outliervec:=
    1    0
    2    1
    3    1
    4    1
    5    1
    6    1
    7    1
    8    1
    9    1
   10    1
   11    1
   12    0
   13    1
   14    1
   15    1
   16    1
   17    1
   18    1
   19    1
   20    1
   21    1
   22    0
   23    1
   24    1
   25    1
   26    1
   27    1
   28    1
   29    1
   30    1
   31    1
   32    0
   33    1
   34    1
   35    1
   36    0
   37    1
   38    0
   39    1
   40    1
   41    1
   42    1
   43    0
   44    1
   45    0
   46    1
   47    1
   48    1
   49    1
   50    1
   51    1
   52    1
   53    1
   54    1
   55    1
   56    1
   57    1
   58    1
   59    1
   60    1
   61    1
   62    1
   63    1
   64    1
   65    1
   66    1
   67    1
   68    0
   69    1
   70    1
   71    1
   72    1
   73    1
   74    0
   75    0
   76    1
   77    0
   78    1
   79    1
   80    0
   81    1
   82    0
   83    1
   84    1
   85    1
   86    1
   87    1
   88    1
   89    1
   90    1
   91    1
   92    1
   93    1
   94    1
   95    1
   96    1
   97    1
   98    1
   99    0
  100    1
;